SYSTEM=Cl2 Coupling


# Type of Job

ISPIN=2

IBRION=0
MDALGO=0
SMASS=-3
ISIF=2

ALGO=Damped
LDIAG=.FALSE.
TIME=0.1
NELMDL=2
#LSUBROT=.TRUE.



# Electronic Relaxation

ISMEAR=-2
EDIFF=0.000001
NELM=120



# Ionic Relaxation

NSW=1
POTIM=0.01



# Other parameters

NBANDS=5
NPAR=1

ISTART=2
IDIPOL=4
ISYM=0
LWAVE = .TRUE.
#LCHARG = .TRUE.
