SiC Diatomic                            
    1.000000000000000     
    12.0773564168099430    0.0000000000000000    0.0000000000000000
     0.0000000000000000   10.4593161225119893    0.0000000000000000
     0.0000000000000000    0.0000000000000000   10.0000013560573873
  Si              C             
    15    15
Selective dynamics
Direct
  0.2604124707014051  0.5891173718861984  0.6000000000000014   T   T   T
  0.6895875292985978  0.5891173718861984  0.6000000000000014   T   T   T
  0.9750000000000014  0.5854191134515377  0.6000000000000014   T   T   T
  0.1031170863487884  0.8302877461214334  0.6000000000000014   T   T   T
  0.3588281646422247  0.8278887943911695  0.6000000000000014   T   T   T
  0.5911718353577782  0.8278887943911695  0.6000000000000014   T   T   T
  0.8468829136512074  0.8302877461214334  0.6000000000000014   T   T   T
  0.2276904054691421  0.0808882875189133  0.6000000000000014   T   T   T
  0.4750000000000014  0.0857357154894990  0.6000000000000014   T   T   T
  0.7223095945308607  0.0808882875189133  0.6000000000000014   T   T   T
  0.9750000000000014  0.0841769888872217  0.6000000000000014   T   T   T
  0.1079310305799473  0.3378528334670474  0.6000000000000014   T   T   T
  0.3689690288044965  0.3352942693884057  0.6000000000000014   T   T   T
  0.5810309711955063  0.3352942693884057  0.6000000000000014   T   T   T
  0.8420689694200556  0.3378528334670474  0.6000000000000014   T   T   T
  0.2416387567545452  0.4201507799335586  0.6000000000000014   T   T   T
  0.7083612432454576  0.4201507799335586  0.6000000000000014   T   T   T
  0.9750000000000014  0.4162744211440662  0.6000000000000014   T   T   T
  0.1143408043582226  0.6617805509457856  0.6000000000000014   T   T   T
  0.4034433154901974  0.6623351059222073  0.6000000000000014   T   T   T
  0.5465566845098054  0.6623351059222073  0.6000000000000014   T   T   T
  0.8356591956417802  0.6617805509457856  0.6000000000000014   T   T   T
  0.2301076817659268  0.9115807593535684  0.6000000000000014   T   T   T
  0.4750000000000014  0.9240664624310013  0.6000000000000014   T   T   T
  0.7198923182340690  0.9115807593535684  0.6000000000000014   T   T   T
  0.9750000000000014  0.9140623656413830  0.6000000000000014   T   T   T
  0.1026898858454042  0.1679001769849732  0.6000000000000014   T   T   T
  0.3512819498504631  0.1700535261649326  0.6000000000000014   T   T   T
  0.5987180501495398  0.1700535261649326  0.6000000000000014   T   T   T
  0.8473101141545988  0.1679001769849732  0.6000000000000014   T   T   T
 
  0.00000000E+00  0.00000000E+00  0.00000000E+00
  0.00000000E+00  0.00000000E+00  0.00000000E+00
  0.00000000E+00  0.00000000E+00  0.00000000E+00
  0.00000000E+00  0.00000000E+00  0.00000000E+00
  0.00000000E+00  0.00000000E+00  0.00000000E+00
  0.00000000E+00  0.00000000E+00  0.00000000E+00
  0.00000000E+00  0.00000000E+00  0.00000000E+00
  0.00000000E+00  0.00000000E+00  0.00000000E+00
  0.00000000E+00  0.00000000E+00  0.00000000E+00
  0.00000000E+00  0.00000000E+00  0.00000000E+00
  0.00000000E+00  0.00000000E+00  0.00000000E+00
  0.00000000E+00  0.00000000E+00  0.00000000E+00
  0.00000000E+00  0.00000000E+00  0.00000000E+00
  0.00000000E+00  0.00000000E+00  0.00000000E+00
  0.00000000E+00  0.00000000E+00  0.00000000E+00
  0.00000000E+00  0.00000000E+00  0.00000000E+00
  0.00000000E+00  0.00000000E+00  0.00000000E+00
  0.00000000E+00  0.00000000E+00  0.00000000E+00
  0.00000000E+00  0.00000000E+00  0.00000000E+00
  0.00000000E+00  0.00000000E+00  0.00000000E+00
  0.00000000E+00  0.00000000E+00  0.00000000E+00
  0.00000000E+00  0.00000000E+00  0.00000000E+00
  0.00000000E+00  0.00000000E+00  0.00000000E+00
  0.00000000E+00  0.00000000E+00  0.00000000E+00
  0.00000000E+00  0.00000000E+00  0.00000000E+00
  0.00000000E+00  0.00000000E+00  0.00000000E+00
  0.00000000E+00  0.00000000E+00  0.00000000E+00
  0.00000000E+00  0.00000000E+00  0.00000000E+00
  0.00000000E+00  0.00000000E+00  0.00000000E+00
  0.00000000E+00  0.00000000E+00  0.00000000E+00
